7 9 11 10 8 17 18 16 15 14 13 12 23 22 31 36 37 38 35 34 33 32 30 29 28 27 26 25 24 21 20 19 568 569 570 474 473 472 471 495 494 524 525 493 492 491 490 526 523 522 521 520 517 516 515 514 513 512 527 528 529 530 531 532 533 489 488 534 186 188 187 178 177 176 540 538 539 537 536 535 487 486 485 484 483 482 481 480 479 478 477 476 475 567 566 565 564 563 562 561 560 549 548 545 546 547 544 543 541 542 107 109 108 173 174 175 172 110 111 112 114 115 116 117 106 105 104 103 98 99 554 553 552 100 102 101 551 550 559 558 557 556 555 46 45 44 41 40 39 42 43 47 48 49 50 84 51 52 54 53 55 56 83 82 85 86 87 90 92 91 93 97 96 95 94 89 88 78 79 80 81 57 58 59 60 61 63 62 64 76 77 75 74 73 119 118 120 121 122 123 71 72 65 66 67 68 70 69 124 125 126 127 128 129 130 131 132 133 134 135 136 137 138 139 140 141 144 143 142 151 150 149 152 148 147 146 145 158 157 153 156 159 155 154 165 164 166 167 163 160 113 161 162 168 170 171 169 180 181 179 182 183 185 184 194 195 196 197 198 199 200 201 202 204 203 208 207 206 205 209 210 211 212 213 214 215 216 217 223 224 222 221 220 218 219 193 192 191 190 226 225 189 227 228 229 230 231 233 232 234 235 236 511 510 509 237 240 239 238 246 247 245 244 243 242 248 249 250 251 252 254 253 255 256 257 260 261 259 258 262 263 264 265 266 267 271 272 269 268 270 296 295 294 293 291 292 273 274 275 290 289 288 276 277 278 279 282 281 280 287 286 285 284 283 334 335 336 337 338 339 333 332 331 330 340 341 343 344 345 346 364 363 362 347 348 349 350 351 352 353 354 355 357 358 359 361 360 401 403 402 356 412 411 410 418 417 413 414 415 416 419 420 421 422 423 424 425 426 427 428 429 430 432 437 438 436 435 434 433 431 382 386 383 384 409 408 406 405 404 400 399 407 385 387 388 389 390 392 391 393 394 397 398 370 369 368 367 365 342 366 329 328 327 326 325 323 322 324 297 298 299 300 241 301 302 508 507 506 307 303 304 306 305 318 317 319 320 321 316 314 315 374 373 372 371 396 395 375 376 377 378 379 380 381 445 444 443 442 439 454 455 456 457 458 459 460 463 462 461 452 453 440 441 446 447 448 449 450 451 311 312 313 310 309 308 505 504 503 502 501 500 499 498 519 518 497 496 470 469 465 464 466 467 468 571 572 573 0 1 2 3 4 5 6